50

94 7 283
92 3 342
89 7 279
89 26 352
87 8 285
82 15 256
82 3 310
81 17 332
80 6 305
80 18 306
78 10 236
71 6 239
70 7 338
67 15 323
66 4 221
63 13 249
58 8 312
52 6 242
50 7 319
48 11 289
46 13 188
36 6 269
34 11 245
33 4 326
31 8 348
30 1 223
27 1 238
26 5 237
21 6 186
21 4 350
20 6 323
19 6 294
18 2 265
18 4 358
17 6 102
12 2 345
11 1 47
11 4 112
11 4 336
11 1 175
10 1 73
10 1 355
7 1 152
7 3 342
7 3 302
6 1 102
5 1 212
5 2 78
4 1 161
3 1 302
